(set-logic QF_UF)
(declare-fun car () Bool)
(declare-fun circuit () Bool)
(declare-fun clk () Bool)
(declare-fun prt () Bool)
(assert (or (or (not car) (not clk)) (not (not clk))))
(assert (or (or (or (not car) (not clk)) (not (not clk))) (not (or (not car) (not clk)))))
(assert (or (or (or (not car) (not clk)) (not (not clk))) (not (not (not clk)))))
(assert (not (or (or (not car) (not clk)) (not (not clk)))))
(assert (not (or (or (not car) (not clk)) (not (not clk)))))
(check-sat)
(exit)
